; benchmark generated from python API
(set-info :status unknown)
(declare-datatypes ((RealState 0)) (((RMk1 (rval1 Real)) (RMk2 (rval2 Real)))))
 (assert
 (forall ((|v9:0| Real) )(exists ((|v8:1_st| RealState) (val!1200 Real) )(forall ((|v7:2| Real) )(exists ((|v6:3_st| RealState) (val!1201 Real) )(forall ((|v5:4| Real) )(exists ((|v4:5_st| RealState) (val!1202 Real) )(forall ((|v3:6| Real) )(exists ((|v2:7_st| RealState) (val!1203 Real) )(forall ((|v1:8| Real) )(exists ((|v0:9_st| RealState) (val!1204 Real) )(let ((?x152 (rval2 |v0:9_st|)))
 (let ((?x810 (* 5.0 ?x152)))
 (let ((?x366 (- 9.0)))
 (let ((?x380 (+ (+ (* (- 10.0) (rval2 |v4:5_st|)) (* 10.0 |v7:2|)) (* (- 15.0) |v9:0|))))
 (let (($x1385 (or (<= ?x380 ?x366) (<= (+ (+ (* (- 20.0) |v7:2|) (* (- 2.0) |v1:8|)) ?x810) 16.0))))
 (let ((?x227 (- 4.0)))
 (let ((?x1159 (+ (+ (* (- 7.0) |v9:0|) (* 13.0 (rval2 |v6:3_st|))) (* 17.0 (rval2 |v8:1_st|)))))
 (let ((?x864 (- 1.0)))
 (let ((?x734 (rval2 |v2:7_st|)))
 (let ((?x1031 (- 14.0)))
 (let ((?x541 (* ?x1031 ?x734)))
 (let (($x1337 (or (<= (+ (+ (* (- 8.0) |v7:2|) (* (- 11.0) |v7:2|)) ?x541) ?x864) (<= ?x1159 ?x227))))
 (let ((?x870 (- 12.0)))
 (let (($x387 (<= (+ (+ (* 20.0 |v3:6|) (* (- 15.0) ?x734)) (* ?x227 (rval2 |v8:1_st|))) ?x870)))
 (let ((?x733 (- 5.0)))
 (let ((?x714 (+ (+ (* 14.0 |v1:8|) (* ?x864 (rval2 |v4:5_st|))) (* (- 20.0) (rval2 |v4:5_st|)))))
 (let (($x1302 (<= (+ (+ (* ?x1031 ?x152) (* 4.0 |v1:8|)) (* (- 18.0) (rval2 |v8:1_st|))) 12.0)))
 (let ((?x476 (- 10.0)))
 (let (($x1161 (<= (+ (+ (* 15.0 ?x734) (* 5.0 |v1:8|)) (* (- 20.0) |v7:2|)) ?x476)))
 (let ((?x885 (- 17.0)))
 (let (($x911 (<= (+ (+ (* ?x864 (rval2 |v6:3_st|)) (* 6.0 (rval2 |v6:3_st|))) ?x152) ?x885)))
 (let (($x141 (<= (+ (+ (* 12.0 |v3:6|) (* (- 6.0) |v5:4|)) (* 13.0 |v7:2|)) 5.0)))
 (let ((?x1108 (+ (+ (* (- 15.0) ?x734) (* (- 3.0) (rval2 |v8:1_st|))) (* 17.0 (rval2 |v4:5_st|)))))
 (let (($x143 (or (<= ?x1108 ?x885) (<= (+ (+ (* 7.0 (rval2 |v6:3_st|)) ?x152) (* 13.0 |v9:0|)) ?x476))))
 (let ((?x971 (- 2.0)))
 (let (($x417 (<= (+ (+ (* 9.0 |v7:2|) (* 4.0 (rval2 |v4:5_st|))) (* (- 11.0) |v7:2|)) ?x971)))
 (let (($x1253 (and (<= (+ (+ ?x541 (* (- 8.0) |v9:0|)) (* ?x971 (rval2 |v8:1_st|))) ?x971) $x417)))
 (let ((?x275 (- 7.0)))
 (let (($x1355 (<= (+ (+ (* 18.0 (rval2 |v8:1_st|)) (* 11.0 |v5:4|)) (* (- 16.0) |v7:2|)) ?x275)))
 (let (($x686 (<= (+ (+ (* 8.0 ?x152) (* ?x870 (rval2 |v8:1_st|))) (* ?x1031 |v5:4|)) 16.0)))
 (let (($x723 (and (or (and (and $x686 $x1355) $x1253) (and $x143 (or $x141 $x911))) (and (and (or $x1161 $x1302) (or (<= ?x714 ?x733) $x387)) (or $x1337 $x1385)))))
 (let (($x1272 (<= (+ (+ (* 15.0 ?x734) (* 0.0 ?x734)) (* 10.0 (rval2 |v8:1_st|))) 20.0)))
 (let ((?x1200 (+ (+ (* (- 15.0) |v3:6|) (* ?x366 (rval2 |v4:5_st|))) (* ?x227 (rval2 |v4:5_st|)))))
 (let (($x597 (<= (+ (+ (* (- 18.0) |v1:8|) (* ?x275 |v5:4|)) (* ?x227 |v9:0|)) 9.0)))
 (let (($x872 (or (<= (+ (+ (* 18.0 |v5:4|) (* 7.0 |v3:6|)) (* 8.0 |v3:6|)) 1.0) $x597)))
 (let (($x1315 (<= (+ (+ (* (- 11.0) |v7:2|) (* 20.0 |v5:4|)) (* 18.0 |v7:2|)) 0.0)))
 (let (($x974 (and $x1315 (<= (+ (+ (* ?x733 |v1:8|) (* ?x733 ?x152)) (* 8.0 |v3:6|)) 16.0))))
 (let ((?x232 (+ (+ (* (- 8.0) |v1:8|) (* ?x275 |v7:2|)) (* (- 18.0) (rval2 |v4:5_st|)))))
 (let ((?x647 (- 3.0)))
 (let (($x954 (<= (+ (+ (* 14.0 (rval2 |v6:3_st|)) (* ?x476 ?x152)) (* 13.0 |v3:6|)) ?x647)))
 (let (($x1402 (or (or (or $x954 (<= ?x232 12.0)) $x974) (or $x872 (and (<= ?x1200 ?x227) $x1272)))))
 (let (($x652 (<= (+ (+ (* 20.0 |v3:6|) (* 7.0 ?x152)) (* (- 20.0) |v3:6|)) 16.0)))
 (let (($x922 (<= (+ (+ (* (- 18.0) ?x152) (* (- 11.0) |v3:6|)) (* ?x476 |v5:4|)) 5.0)))
 (let (($x228 (<= (+ (+ (* 10.0 (rval2 |v8:1_st|)) (* 2.0 |v7:2|)) (* 17.0 ?x734)) 7.0)))
 (let ((?x1211 (- 13.0)))
 (let ((?x1293 (+ (+ (* 0.0 (rval2 |v4:5_st|)) (* ?x971 ?x152)) (* 5.0 (rval2 |v4:5_st|)))))
 (let (($x866 (or (<= (+ (+ (* 6.0 (rval2 |v4:5_st|)) |v1:8|) (* 17.0 |v5:4|)) 3.0) (<= ?x1293 ?x1211))))
 (let ((?x601 (rval2 |v4:5_st|)))
 (let ((?x1005 (* 9.0 ?x601)))
 (let (($x747 (<= (+ (+ (* (- 8.0) |v3:6|) (* 15.0 (rval2 |v6:3_st|))) (* 6.0 ?x734)) 11.0)))
 (let (($x54 (or $x747 (<= (+ (+ (* 9.0 ?x152) (* 13.0 (rval2 |v6:3_st|))) ?x1005) 5.0))))
 (let (($x945 (not (= |v0:9_st| (RMk1 val!1204)))))
 (let (($x729 (not (= |v2:7_st| (RMk1 val!1203)))))
 (let (($x655 (not (= |v4:5_st| (RMk1 val!1202)))))
 (let (($x501 (not (= |v6:3_st| (RMk1 val!1201)))))
 (let (($x699 (not (= |v8:1_st| (RMk1 val!1200)))))
 (and $x699 $x501 $x655 $x729 $x945 (or (and (or (and $x54 $x866) (or (or $x228 $x922) $x652)) $x1402) $x723)))))))))))))))))))))))))))))))))))))))))))))))))))))))))))
 )
 )
 )
 )
 )
 )
 )
 )
 )
 )
(check-sat)
